(set-logic ALL)
(set-option :produce-models true)
(declare-sort BoundSet 0)
(declare-sort UnboundSet 0)
(set-option :finite-model-find true)
(declare-fun CauseCancer (BoundSet BoundSet) Bool)
(declare-fun ShouldVote (BoundSet BoundSet) Bool)
(declare-fun TearDown (BoundSet) Bool)
(declare-fun Replace (BoundSet BoundSet BoundSet) Bool)
(assert (not (=> (exists ((b BoundSet)) (exists ((a BoundSet)) (CauseCancer a b))) (exists ((e BoundSet)) (exists ((c BoundSet)) (exists ((d BoundSet)) (exists ((h BoundSet)) (exists ((g BoundSet)) (and (ShouldVote c d) (and (TearDown e) (Replace e g h)))))))))))
(check-sat)
(get-model)